58
8
0 10 11 12 14 18 20 21 25 28 29 30 32 35 38 40 41 43 45 46 47 48 50 51 55 56
1 9 10 14 18 20 22 24 25 26 29 30 34 37 38 39 40 43 45 46 47 48 50 55 56 57
2 10 12 18 22 24 25 28 29 34 35 38 41 44 45 48 50 54 56
3 14 20 21 22 24 25 27 28 29 30 31 33 35 36 38 40 41 43 45 46 47 48 52 56
4 10 13 14 21 22 25 28 30 31 35 36 43 44 45 47 49 53 54 55 56
5 9 11 12 18 20 32 40 42 46 48 49 53
6 13 15 23 31 37 41 47 48 49 50 55
7 8 10 16 17 19 56
